c Random 3-SAT formula
c Number of variables: 5
c Number of clauses: 23
p cnf 5 23
-2 -3 -5 0
1 -5 -4 0
3 -4 -1 0
2 -3 -4 0
-4 -3 -1 0
1 3 -4 0
-2 5 -1 0
-5 3 -2 0
-5 1 -3 0
-2 1 -4 0
1 -2 4 0
3 2 -4 0
-4 -3 -2 0
3 1 -2 0
1 2 -3 0
4 -2 5 0
3 -5 -1 0
3 -4 5 0
-3 -1 -4 0
-4 5 1 0
-1 5 4 0
3 -2 -4 0
4 3 2 0
